p edge 20 40
e 1 8
e 1 11
e 1 12
e 1 16
e 2 15
e 3 17
e 3 20
e 4 7
e 4 8
e 4 17
e 4 18
e 5 6
e 5 9
e 5 20
e 6 9
e 6 18
e 6 19
e 6 20
e 7 8
e 7 9
e 7 13
e 7 19
e 8 12
e 8 17
e 9 10
e 9 11
e 9 16
e 9 18
e 11 12
e 11 14
e 11 15
e 11 18
e 13 14
e 13 17
e 15 16
e 15 17
e 15 18
e 15 19
e 15 20
e 18 19
